NAME 
OBJSENSE MAX
ROWS
 N  OBJ
 L  packing[0]
 L  packing[1]
 L  packing[2]
 L  packing[3]
 L  packing[4]
 L  packing[5]
 L  packing[6]
 L  packing[7]
 L  packing[8]
 L  packing[9]
 L  packing[10]
 L  packing[11]
 L  packing[12]
 L  packing[13]
 L  packing[14]
 L  packing[15]
 L  packing[16]
 L  packing[17]
 L  packing[18]
 L  packing[19]
 L  packing[20]
 L  packing[21]
 L  packing[22]
 L  packing[23]
 L  packing[24]
 L  packing[25]
 L  packing[26]
 L  packing[27]
 L  packing[28]
 L  packing[29]
 L  packing[30]
 L  packing[31]
 L  packing[32]
 L  packing[33]
 L  packing[34]
 L  packing[35]
 L  packing[36]
 L  packing[37]
 L  packing[38]
 L  packing[39]
 L  packing[40]
 L  packing[41]
 L  packing[42]
 L  packing[43]
 L  packing[44]
 L  packing[45]
 L  packing[46]
 L  packing[47]
 L  packing[48]
 L  packing[49]
 L  R51     
COLUMNS
    MARKER    'MARKER'                 'INTORG'
    x[1]      OBJ       77
    x[1]      packing[0]  103
    x[1]      packing[1]  125
    x[1]      packing[2]  144
    x[1]      packing[3]  41
    x[1]      packing[4]  145
    x[1]      packing[5]  119
    x[1]      packing[7]  197
    x[1]      packing[8]  102
    x[1]      packing[9]  131
    x[1]      packing[10]  38
    x[1]      packing[12]  10
    x[1]      packing[13]  141
    x[1]      packing[14]  18
    x[1]      packing[15]  72
    x[1]      packing[16]  14
    x[1]      packing[17]  120
    x[1]      packing[18]  45
    x[1]      packing[19]  9
    x[1]      packing[20]  88
    x[1]      packing[21]  41
    x[1]      packing[22]  9
    x[1]      packing[23]  33
    x[1]      packing[24]  83
    x[1]      packing[25]  47
    x[1]      packing[26]  114
    x[1]      packing[27]  160
    x[1]      packing[28]  75
    x[1]      packing[29]  105
    x[1]      packing[30]  149
    x[1]      packing[31]  63
    x[1]      packing[32]  128
    x[1]      packing[33]  6
    x[1]      packing[34]  69
    x[1]      packing[36]  104
    x[1]      packing[38]  115
    x[1]      packing[39]  124
    x[1]      packing[40]  167
    x[1]      packing[41]  17
    x[1]      packing[43]  103
    x[1]      packing[44]  75
    x[1]      packing[45]  80
    x[1]      packing[46]  180
    x[1]      packing[47]  117
    x[1]      packing[49]  187
    x[2]      OBJ       152
    x[2]      packing[0]  46
    x[2]      packing[2]  40
    x[2]      packing[4]  101
    x[2]      packing[6]  19
    x[2]      packing[7]  38
    x[2]      packing[8]  176
    x[2]      packing[9]  66
    x[2]      packing[11]  148
    x[2]      packing[13]  147
    x[2]      packing[14]  122
    x[2]      packing[15]  188
    x[2]      packing[16]  32
    x[2]      packing[17]  138
    x[2]      packing[20]  115
    x[2]      packing[21]  70
    x[2]      packing[22]  172
    x[2]      packing[23]  5
    x[2]      packing[24]  139
    x[2]      packing[25]  104
    x[2]      packing[26]  38
    x[2]      packing[27]  77
    x[2]      packing[29]  69
    x[2]      packing[30]  185
    x[2]      packing[33]  56
    x[2]      packing[34]  188
    x[2]      packing[35]  105
    x[2]      packing[36]  196
    x[2]      packing[37]  179
    x[2]      packing[38]  106
    x[2]      packing[40]  93
    x[2]      packing[42]  19
    x[2]      packing[43]  80
    x[2]      packing[45]  85
    x[2]      packing[46]  58
    x[2]      packing[47]  120
    x[2]      packing[49]  36
    x[3]      OBJ       165
    x[3]      packing[0]  53
    x[3]      packing[1]  87
    x[3]      packing[3]  22
    x[3]      packing[4]  25
    x[3]      packing[6]  13
    x[3]      packing[7]  54
    x[3]      packing[8]  133
    x[3]      packing[9]  137
    x[3]      packing[10]  190
    x[3]      packing[11]  147
    x[3]      packing[12]  117
    x[3]      packing[15]  173
    x[3]      packing[18]  96
    x[3]      packing[19]  114
    x[3]      packing[22]  84
    x[3]      packing[24]  39
    x[3]      packing[25]  170
    x[3]      packing[26]  145
    x[3]      packing[28]  128
    x[3]      packing[29]  176
    x[3]      packing[30]  13
    x[3]      packing[31]  131
    x[3]      packing[33]  90
    x[3]      packing[34]  176
    x[3]      packing[35]  128
    x[3]      packing[36]  64
    x[3]      packing[38]  89
    x[3]      packing[39]  100
    x[3]      packing[40]  100
    x[3]      packing[41]  160
    x[3]      packing[43]  126
    x[3]      packing[44]  58
    x[3]      packing[45]  151
    x[3]      packing[47]  17
    x[3]      packing[48]  54
    x[4]      OBJ       116
    x[4]      packing[0]  143
    x[4]      packing[1]  107
    x[4]      packing[2]  123
    x[4]      packing[3]  68
    x[4]      packing[6]  16
    x[4]      packing[7]  45
    x[4]      packing[8]  156
    x[4]      packing[9]  89
    x[4]      packing[10]  95
    x[4]      packing[11]  8
    x[4]      packing[12]  72
    x[4]      packing[13]  116
    x[4]      packing[15]  97
    x[4]      packing[16]  98
    x[4]      packing[18]  87
    x[4]      packing[19]  19
    x[4]      packing[21]  97
    x[4]      packing[22]  155
    x[4]      packing[23]  64
    x[4]      packing[24]  41
    x[4]      packing[25]  100
    x[4]      packing[27]  99
    x[4]      packing[29]  81
    x[4]      packing[30]  156
    x[4]      packing[33]  10
    x[4]      packing[34]  37
    x[4]      packing[35]  94
    x[4]      packing[37]  125
    x[4]      packing[39]  93
    x[4]      packing[40]  101
    x[4]      packing[41]  118
    x[4]      packing[44]  55
    x[4]      packing[45]  145
    x[4]      packing[46]  163
    x[4]      packing[47]  30
    x[4]      packing[48]  34
    x[5]      OBJ       75
    x[5]      packing[2]  85
    x[5]      packing[3]  175
    x[5]      packing[4]  133
    x[5]      packing[5]  184
    x[5]      packing[6]  69
    x[5]      packing[7]  18
    x[5]      packing[8]  191
    x[5]      packing[9]  91
    x[5]      packing[10]  102
    x[5]      packing[11]  48
    x[5]      packing[12]  3
    x[5]      packing[13]  101
    x[5]      packing[14]  142
    x[5]      packing[15]  151
    x[5]      packing[16]  177
    x[5]      packing[17]  157
    x[5]      packing[19]  118
    x[5]      packing[20]  181
    x[5]      packing[21]  141
    x[5]      packing[22]  88
    x[5]      packing[23]  17
    x[5]      packing[24]  19
    x[5]      packing[26]  88
    x[5]      packing[27]  16
    x[5]      packing[28]  185
    x[5]      packing[29]  173
    x[5]      packing[30]  63
    x[5]      packing[31]  174
    x[5]      packing[32]  24
    x[5]      packing[33]  39
    x[5]      packing[37]  165
    x[5]      packing[38]  18
    x[5]      packing[39]  77
    x[5]      packing[41]  142
    x[5]      packing[42]  140
    x[5]      packing[44]  14
    x[5]      packing[45]  100
    x[5]      packing[46]  78
    x[5]      packing[49]  82
    x[6]      OBJ       130
    x[6]      packing[0]  7
    x[6]      packing[1]  144
    x[6]      packing[2]  5
    x[6]      packing[3]  160
    x[6]      packing[5]  154
    x[6]      packing[6]  1
    x[6]      packing[7]  123
    x[6]      packing[8]  40
    x[6]      packing[9]  145
    x[6]      packing[10]  179
    x[6]      packing[12]  137
    x[6]      packing[13]  42
    x[6]      packing[15]  131
    x[6]      packing[16]  147
    x[6]      packing[17]  22
    x[6]      packing[18]  82
    x[6]      packing[19]  96
    x[6]      packing[20]  115
    x[6]      packing[23]  72
    x[6]      packing[24]  17
    x[6]      packing[25]  101
    x[6]      packing[26]  188
    x[6]      packing[27]  125
    x[6]      packing[29]  199
    x[6]      packing[30]  21
    x[6]      packing[31]  111
    x[6]      packing[32]  148
    x[6]      packing[33]  36
    x[6]      packing[35]  140
    x[6]      packing[36]  178
    x[6]      packing[37]  31
    x[6]      packing[39]  134
    x[6]      packing[40]  153
    x[6]      packing[41]  146
    x[6]      packing[42]  68
    x[6]      packing[43]  94
    x[6]      packing[45]  152
    x[6]      packing[46]  125
    x[6]      packing[47]  78
    x[6]      packing[48]  90
    x[6]      packing[49]  189
    x[7]      OBJ       184
    x[7]      packing[0]  121
    x[7]      packing[1]  40
    x[7]      packing[2]  131
    x[7]      packing[3]  162
    x[7]      packing[4]  18
    x[7]      packing[5]  70
    x[7]      packing[6]  16
    x[7]      packing[7]  93
    x[7]      packing[9]  192
    x[7]      packing[10]  32
    x[7]      packing[11]  118
    x[7]      packing[12]  186
    x[7]      packing[13]  30
    x[7]      packing[14]  89
    x[7]      packing[16]  92
    x[7]      packing[17]  101
    x[7]      packing[18]  33
    x[7]      packing[19]  42
    x[7]      packing[20]  103
    x[7]      packing[21]  24
    x[7]      packing[22]  4
    x[7]      packing[23]  103
    x[7]      packing[24]  21
    x[7]      packing[25]  75
    x[7]      packing[26]  145
    x[7]      packing[29]  47
    x[7]      packing[30]  167
    x[7]      packing[31]  126
    x[7]      packing[32]  141
    x[7]      packing[33]  103
    x[7]      packing[34]  100
    x[7]      packing[35]  195
    x[7]      packing[37]  141
    x[7]      packing[38]  53
    x[7]      packing[39]  193
    x[7]      packing[41]  93
    x[7]      packing[43]  6
    x[7]      packing[44]  16
    x[7]      packing[45]  140
    x[7]      packing[46]  26
    x[7]      packing[47]  54
    x[7]      packing[48]  33
    x[7]      R51       1
    x[8]      OBJ       110
    x[8]      packing[0]  108
    x[8]      packing[2]  180
    x[8]      packing[3]  101
    x[8]      packing[4]  197
    x[8]      packing[5]  86
    x[8]      packing[6]  154
    x[8]      packing[7]  169
    x[8]      packing[8]  158
    x[8]      packing[10]  35
    x[8]      packing[11]  182
    x[8]      packing[12]  145
    x[8]      packing[13]  19
    x[8]      packing[14]  195
    x[8]      packing[15]  127
    x[8]      packing[17]  91
    x[8]      packing[18]  38
    x[8]      packing[19]  33
    x[8]      packing[20]  83
    x[8]      packing[21]  19
    x[8]      packing[22]  71
    x[8]      packing[24]  1
    x[8]      packing[25]  139
    x[8]      packing[27]  161
    x[8]      packing[28]  151
    x[8]      packing[29]  139
    x[8]      packing[31]  65
    x[8]      packing[32]  65
    x[8]      packing[33]  52
    x[8]      packing[35]  103
    x[8]      packing[36]  134
    x[8]      packing[37]  37
    x[8]      packing[38]  80
    x[8]      packing[40]  6
    x[8]      packing[41]  23
    x[8]      packing[42]  88
    x[8]      packing[44]  14
    x[8]      packing[45]  137
    x[8]      packing[46]  64
    x[8]      packing[47]  31
    x[8]      packing[48]  143
    x[8]      packing[49]  114
    x[9]      OBJ       99
    x[9]      packing[0]  51
    x[9]      packing[1]  24
    x[9]      packing[2]  57
    x[9]      packing[3]  193
    x[9]      packing[5]  15
    x[9]      packing[6]  121
    x[9]      packing[7]  93
    x[9]      packing[8]  166
    x[9]      packing[9]  199
    x[9]      packing[10]  179
    x[9]      packing[11]  28
    x[9]      packing[13]  12
    x[9]      packing[15]  103
    x[9]      packing[16]  147
    x[9]      packing[17]  159
    x[9]      packing[18]  94
    x[9]      packing[19]  151
    x[9]      packing[20]  121
    x[9]      packing[21]  2
    x[9]      packing[22]  50
    x[9]      packing[26]  6
    x[9]      packing[28]  111
    x[9]      packing[29]  5
    x[9]      packing[30]  100
    x[9]      packing[32]  49
    x[9]      packing[33]  24
    x[9]      packing[35]  122
    x[9]      packing[36]  44
    x[9]      packing[37]  87
    x[9]      packing[39]  11
    x[9]      packing[41]  62
    x[9]      packing[42]  133
    x[9]      packing[45]  169
    x[9]      packing[46]  199
    x[9]      packing[47]  104
    x[9]      packing[48]  196
    x[10]     OBJ       21
    x[10]     packing[0]  122
    x[10]     packing[1]  120
    x[10]     packing[2]  87
    x[10]     packing[3]  16
    x[10]     packing[4]  163
    x[10]     packing[5]  46
    x[10]     packing[6]  8
    x[10]     packing[7]  193
    x[10]     packing[9]  68
    x[10]     packing[10]  55
    x[10]     packing[11]  16
    x[10]     packing[14]  160
    x[10]     packing[16]  29
    x[10]     packing[17]  64
    x[10]     packing[18]  96
    x[10]     packing[19]  60
    x[10]     packing[20]  168
    x[10]     packing[21]  155
    x[10]     packing[22]  43
    x[10]     packing[23]  195
    x[10]     packing[24]  80
    x[10]     packing[25]  173
    x[10]     packing[27]  17
    x[10]     packing[28]  75
    x[10]     packing[29]  78
    x[10]     packing[30]  105
    x[10]     packing[32]  42
    x[10]     packing[34]  1
    x[10]     packing[35]  54
    x[10]     packing[37]  72
    x[10]     packing[38]  90
    x[10]     packing[39]  85
    x[10]     packing[41]  146
    x[10]     packing[44]  45
    x[10]     packing[45]  163
    x[10]     packing[46]  138
    x[10]     packing[48]  5
    x[11]     OBJ       47
    x[11]     packing[0]  45
    x[11]     packing[1]  2
    x[11]     packing[2]  33
    x[11]     packing[3]  178
    x[11]     packing[4]  170
    x[11]     packing[6]  116
    x[11]     packing[7]  127
    x[11]     packing[9]  76
    x[11]     packing[10]  32
    x[11]     packing[11]  7
    x[11]     packing[12]  197
    x[11]     packing[13]  189
    x[11]     packing[15]  191
    x[11]     packing[16]  198
    x[11]     packing[17]  122
    x[11]     packing[21]  173
    x[11]     packing[22]  7
    x[11]     packing[23]  159
    x[11]     packing[24]  21
    x[11]     packing[25]  71
    x[11]     packing[27]  19
    x[11]     packing[28]  181
    x[11]     packing[31]  135
    x[11]     packing[33]  76
    x[11]     packing[35]  91
    x[11]     packing[36]  52
    x[11]     packing[38]  69
    x[11]     packing[39]  84
    x[11]     packing[40]  175
    x[11]     packing[41]  31
    x[11]     packing[42]  55
    x[11]     packing[43]  119
    x[11]     packing[45]  158
    x[11]     packing[47]  131
    x[11]     packing[49]  15
    x[12]     OBJ       56
    x[12]     packing[0]  132
    x[12]     packing[2]  26
    x[12]     packing[3]  114
    x[12]     packing[4]  129
    x[12]     packing[7]  51
    x[12]     packing[8]  93
    x[12]     packing[9]  197
    x[12]     packing[10]  82
    x[12]     packing[11]  106
    x[12]     packing[12]  171
    x[12]     packing[14]  154
    x[12]     packing[16]  58
    x[12]     packing[17]  62
    x[12]     packing[18]  150
    x[12]     packing[20]  121
    x[12]     packing[21]  2
    x[12]     packing[23]  191
    x[12]     packing[24]  150
    x[12]     packing[25]  124
    x[12]     packing[26]  152
    x[12]     packing[27]  139
    x[12]     packing[31]  175
    x[12]     packing[32]  29
    x[12]     packing[33]  16
    x[12]     packing[34]  18
    x[12]     packing[37]  84
    x[12]     packing[38]  107
    x[12]     packing[39]  178
    x[12]     packing[40]  32
    x[12]     packing[41]  197
    x[12]     packing[43]  33
    x[12]     packing[44]  186
    x[12]     packing[45]  100
    x[12]     packing[46]  165
    x[12]     packing[47]  11
    x[12]     packing[48]  88
    x[12]     packing[49]  77
    x[13]     OBJ       180
    x[13]     packing[0]  64
    x[13]     packing[1]  68
    x[13]     packing[3]  110
    x[13]     packing[4]  48
    x[13]     packing[5]  165
    x[13]     packing[6]  56
    x[13]     packing[7]  49
    x[13]     packing[10]  66
    x[13]     packing[11]  136
    x[13]     packing[12]  191
    x[13]     packing[14]  197
    x[13]     packing[15]  148
    x[13]     packing[17]  50
    x[13]     packing[18]  114
    x[13]     packing[19]  23
    x[13]     packing[20]  102
    x[13]     packing[24]  19
    x[13]     packing[25]  49
    x[13]     packing[26]  38
    x[13]     packing[27]  3
    x[13]     packing[28]  144
    x[13]     packing[29]  110
    x[13]     packing[30]  189
    x[13]     packing[31]  179
    x[13]     packing[33]  12
    x[13]     packing[34]  134
    x[13]     packing[35]  186
    x[13]     packing[36]  120
    x[13]     packing[37]  47
    x[13]     packing[39]  4
    x[13]     packing[40]  85
    x[13]     packing[41]  72
    x[13]     packing[42]  4
    x[13]     packing[43]  147
    x[13]     packing[46]  30
    x[13]     packing[47]  56
    x[13]     packing[48]  166
    x[13]     packing[49]  184
    x[13]     R51       1
    x[14]     OBJ       123
    x[14]     packing[2]  149
    x[14]     packing[3]  149
    x[14]     packing[4]  180
    x[14]     packing[5]  159
    x[14]     packing[6]  44
    x[14]     packing[7]  9
    x[14]     packing[8]  51
    x[14]     packing[9]  44
    x[14]     packing[10]  9
    x[14]     packing[11]  53
    x[14]     packing[12]  45
    x[14]     packing[13]  144
    x[14]     packing[14]  50
    x[14]     packing[15]  47
    x[14]     packing[16]  66
    x[14]     packing[17]  158
    x[14]     packing[18]  128
    x[14]     packing[19]  191
    x[14]     packing[20]  102
    x[14]     packing[21]  195
    x[14]     packing[22]  199
    x[14]     packing[23]  199
    x[14]     packing[26]  188
    x[14]     packing[31]  184
    x[14]     packing[32]  63
    x[14]     packing[33]  194
    x[14]     packing[34]  154
    x[14]     packing[39]  127
    x[14]     packing[40]  35
    x[14]     packing[41]  136
    x[14]     packing[43]  107
    x[14]     packing[44]  9
    x[14]     packing[45]  113
    x[14]     packing[47]  22
    x[14]     packing[49]  44
    x[14]     R51       1
    x[15]     OBJ       113
    x[15]     packing[0]  171
    x[15]     packing[1]  38
    x[15]     packing[2]  1
    x[15]     packing[3]  126
    x[15]     packing[4]  105
    x[15]     packing[5]  124
    x[15]     packing[6]  72
    x[15]     packing[7]  95
    x[15]     packing[8]  91
    x[15]     packing[9]  72
    x[15]     packing[10]  53
    x[15]     packing[11]  72
    x[15]     packing[12]  42
    x[15]     packing[13]  25
    x[15]     packing[15]  176
    x[15]     packing[16]  2
    x[15]     packing[17]  26
    x[15]     packing[18]  17
    x[15]     packing[19]  189
    x[15]     packing[20]  143
    x[15]     packing[21]  28
    x[15]     packing[22]  32
    x[15]     packing[23]  50
    x[15]     packing[24]  159
    x[15]     packing[26]  47
    x[15]     packing[27]  122
    x[15]     packing[28]  5
    x[15]     packing[29]  154
    x[15]     packing[30]  87
    x[15]     packing[31]  36
    x[15]     packing[32]  42
    x[15]     packing[33]  126
    x[15]     packing[34]  12
    x[15]     packing[36]  83
    x[15]     packing[37]  172
    x[15]     packing[38]  100
    x[15]     packing[39]  119
    x[15]     packing[40]  83
    x[15]     packing[41]  81
    x[15]     packing[43]  107
    x[15]     packing[44]  5
    x[15]     packing[47]  136
    x[15]     packing[48]  59
    x[15]     R51       1
    x[16]     OBJ       43
    x[16]     packing[0]  3
    x[16]     packing[1]  195
    x[16]     packing[2]  130
    x[16]     packing[3]  166
    x[16]     packing[5]  194
    x[16]     packing[6]  43
    x[16]     packing[7]  1
    x[16]     packing[8]  113
    x[16]     packing[10]  135
    x[16]     packing[11]  4
    x[16]     packing[12]  61
    x[16]     packing[13]  87
    x[16]     packing[14]  68
    x[16]     packing[15]  33
    x[16]     packing[16]  96
    x[16]     packing[18]  128
    x[16]     packing[19]  91
    x[16]     packing[20]  197
    x[16]     packing[21]  74
    x[16]     packing[22]  19
    x[16]     packing[23]  73
    x[16]     packing[26]  184
    x[16]     packing[28]  9
    x[16]     packing[29]  7
    x[16]     packing[30]  138
    x[16]     packing[31]  21
    x[16]     packing[32]  157
    x[16]     packing[33]  28
    x[16]     packing[34]  166
    x[16]     packing[35]  107
    x[16]     packing[36]  16
    x[16]     packing[37]  147
    x[16]     packing[38]  35
    x[16]     packing[39]  37
    x[16]     packing[40]  88
    x[16]     packing[42]  56
    x[16]     packing[43]  3
    x[16]     packing[45]  22
    x[16]     packing[46]  97
    x[16]     packing[47]  9
    x[16]     packing[48]  36
    x[17]     OBJ       138
    x[17]     packing[0]  18
    x[17]     packing[2]  9
    x[17]     packing[4]  28
    x[17]     packing[5]  77
    x[17]     packing[7]  192
    x[17]     packing[8]  15
    x[17]     packing[9]  124
    x[17]     packing[10]  64
    x[17]     packing[11]  35
    x[17]     packing[12]  116
    x[17]     packing[13]  119
    x[17]     packing[14]  63
    x[17]     packing[15]  188
    x[17]     packing[18]  133
    x[17]     packing[19]  169
    x[17]     packing[20]  81
    x[17]     packing[22]  198
    x[17]     packing[23]  125
    x[17]     packing[24]  29
    x[17]     packing[26]  141
    x[17]     packing[27]  28
    x[17]     packing[28]  113
    x[17]     packing[30]  30
    x[17]     packing[31]  53
    x[17]     packing[32]  14
    x[17]     packing[34]  90
    x[17]     packing[35]  107
    x[17]     packing[36]  118
    x[17]     packing[37]  4
    x[17]     packing[38]  181
    x[17]     packing[39]  12
    x[17]     packing[41]  60
    x[17]     packing[43]  163
    x[17]     packing[44]  154
    x[17]     packing[45]  4
    x[17]     packing[46]  113
    x[17]     packing[47]  171
    x[17]     packing[48]  152
    x[17]     packing[49]  80
    x[18]     OBJ       41
    x[18]     packing[0]  112
    x[18]     packing[1]  46
    x[18]     packing[3]  26
    x[18]     packing[4]  14
    x[18]     packing[5]  79
    x[18]     packing[6]  192
    x[18]     packing[7]  14
    x[18]     packing[8]  118
    x[18]     packing[10]  194
    x[18]     packing[11]  97
    x[18]     packing[12]  35
    x[18]     packing[13]  188
    x[18]     packing[15]  8
    x[18]     packing[16]  4
    x[18]     packing[17]  121
    x[18]     packing[18]  97
    x[18]     packing[19]  185
    x[18]     packing[20]  103
    x[18]     packing[22]  85
    x[18]     packing[24]  3
    x[18]     packing[25]  122
    x[18]     packing[26]  138
    x[18]     packing[28]  12
    x[18]     packing[29]  40
    x[18]     packing[30]  81
    x[18]     packing[31]  54
    x[18]     packing[34]  27
    x[18]     packing[36]  133
    x[18]     packing[40]  47
    x[18]     packing[41]  81
    x[18]     packing[42]  182
    x[18]     packing[43]  100
    x[18]     packing[44]  194
    x[18]     packing[45]  100
    x[18]     packing[46]  156
    x[18]     packing[47]  152
    x[18]     packing[48]  78
    x[18]     packing[49]  117
    x[19]     OBJ       134
    x[19]     packing[0]  56
    x[19]     packing[2]  155
    x[19]     packing[3]  77
    x[19]     packing[4]  15
    x[19]     packing[7]  67
    x[19]     packing[8]  144
    x[19]     packing[10]  88
    x[19]     packing[11]  5
    x[19]     packing[12]  48
    x[19]     packing[14]  95
    x[19]     packing[15]  15
    x[19]     packing[16]  26
    x[19]     packing[17]  35
    x[19]     packing[18]  155
    x[19]     packing[20]  197
    x[19]     packing[21]  34
    x[19]     packing[23]  28
    x[19]     packing[25]  75
    x[19]     packing[26]  121
    x[19]     packing[27]  66
    x[19]     packing[28]  166
    x[19]     packing[29]  167
    x[19]     packing[30]  45
    x[19]     packing[32]  40
    x[19]     packing[33]  7
    x[19]     packing[34]  48
    x[19]     packing[37]  40
    x[19]     packing[38]  25
    x[19]     packing[39]  104
    x[19]     packing[41]  161
    x[19]     packing[42]  132
    x[19]     packing[43]  114
    x[19]     packing[44]  157
    x[19]     packing[45]  67
    x[19]     packing[47]  105
    x[19]     packing[48]  23
    x[19]     packing[49]  170
    x[19]     R51       1
    x[20]     OBJ       115
    x[20]     packing[1]  125
    x[20]     packing[2]  20
    x[20]     packing[3]  145
    x[20]     packing[4]  20
    x[20]     packing[5]  48
    x[20]     packing[7]  96
    x[20]     packing[8]  108
    x[20]     packing[9]  34
    x[20]     packing[10]  175
    x[20]     packing[11]  118
    x[20]     packing[12]  182
    x[20]     packing[13]  70
    x[20]     packing[14]  110
    x[20]     packing[15]  96
    x[20]     packing[16]  11
    x[20]     packing[17]  141
    x[20]     packing[18]  178
    x[20]     packing[19]  146
    x[20]     packing[20]  131
    x[20]     packing[21]  56
    x[20]     packing[22]  157
    x[20]     packing[23]  111
    x[20]     packing[24]  23
    x[20]     packing[26]  56
    x[20]     packing[27]  91
    x[20]     packing[29]  13
    x[20]     packing[30]  49
    x[20]     packing[32]  107
    x[20]     packing[36]  31
    x[20]     packing[39]  144
    x[20]     packing[44]  111
    MARKER    'MARKER'                 'INTEND'
RHS
    RHS1      packing[0]  678
    RHS1      packing[1]  561
    RHS1      packing[2]  688
    RHS1      packing[3]  1015
    RHS1      packing[4]  746
    RHS1      packing[5]  760
    RHS1      packing[6]  470
    RHS1      packing[7]  862
    RHS1      packing[8]  928
    RHS1      packing[9]  833
    RHS1      packing[10]  902
    RHS1      packing[11]  664
    RHS1      packing[12]  879
    RHS1      packing[13]  715
    RHS1      packing[14]  732
    RHS1      packing[15]  972
    RHS1      packing[16]  599
    RHS1      packing[17]  784
    RHS1      packing[18]  836
    RHS1      packing[19]  818
    RHS1      packing[20]  1076
    RHS1      packing[21]  556
    RHS1      packing[22]  687
    RHS1      packing[23]  713
    RHS1      packing[24]  422
    RHS1      packing[25]  675
    RHS1      packing[26]  895
    RHS1      packing[27]  562
    RHS1      packing[28]  678
    RHS1      packing[29]  782
    RHS1      packing[30]  789
    RHS1      packing[31]  754
    RHS1      packing[32]  525
    RHS1      packing[33]  438
    RHS1      packing[34]  610
    RHS1      packing[35]  716
    RHS1      packing[36]  637
    RHS1      packing[37]  666
    RHS1      packing[38]  534
    RHS1      packing[39]  813
    RHS1      packing[40]  583
    RHS1      packing[41]  863
    RHS1      packing[42]  439
    RHS1      packing[43]  651
    RHS1      packing[44]  547
    RHS1      packing[45]  943
    RHS1      packing[46]  796
    RHS1      packing[47]  672
    RHS1      packing[48]  579
    RHS1      packing[49]  648
    RHS1      R51       4
BOUNDS
 BV BND1      x[1]    
 BV BND1      x[2]    
 BV BND1      x[3]    
 BV BND1      x[4]    
 BV BND1      x[5]    
 BV BND1      x[6]    
 BV BND1      x[7]    
 BV BND1      x[8]    
 BV BND1      x[9]    
 BV BND1      x[10]   
 BV BND1      x[11]   
 BV BND1      x[12]   
 BV BND1      x[13]   
 BV BND1      x[14]   
 BV BND1      x[15]   
 BV BND1      x[16]   
 BV BND1      x[17]   
 BV BND1      x[18]   
 BV BND1      x[19]   
 BV BND1      x[20]   
ENDATA
